(declare-const lhole_left (_ BitVec 32))
(declare-const rhole_left (_ BitVec 32))
(declare-const rhole_right (_ BitVec 32))
(declare-const rhole_condition (_ BitVec 32))
(declare-const rreturn (_ BitVec 32))
(assert (and (= rreturn rhole_right)
             (ite (not (= rhole_condition (_ bv0 32) )) (= lhole_left rhole_right) (= lhole_left rhole_left))))